
Gurobi 11.0.3 (linux64) logging started Mon Aug 25 15:07:06 2025

Set parameter LogFile to value "/home/yihong/Coding/OR_SUC/SUC_epstheta_results_bigM100000_thread4/case24_ieee_rts_theta0.1_epsilon0.1_gurobi_seed70000_num_gen100_N_WDR50_load_scaling_factor1_proposed_eps_T12quadra_cost_bc1.01.txt"
Set parameter TimeLimit to value 3600
Gurobi Optimizer version 11.0.3 build v11.0.3rc0 (linux64 - "Ubuntu 20.04.6 LTS")

CPU model: AMD EPYC 7532 32-Core Processor, instruction set [SSE2|AVX|AVX2]
Thread count: 64 physical cores, 128 logical processors, using up to 4 threads

Academic license 2399124 - for non-commercial use only - registered to yi___@ed.ac.uk
Optimize a model with 28480 rows, 14931 columns and 656950 nonzeros
Model fingerprint: 0xe70f3311
Model has 1200 quadratic constraints
Variable types: 13731 continuous, 1200 integer (1200 binary)
Coefficient statistics:
  Matrix range     [3e-04, 2e+03]
  QMatrix range    [2e-03, 8e-03]
  QLMatrix range   [5e-01, 6e+01]
  Objective range  [1e+00, 1e+00]
  Bounds range     [1e+00, 1e+00]
  RHS range        [1e+00, 9e+03]
Presolve removed 23378 rows and 6434 columns
Presolve time: 0.20s
Presolved: 5102 rows, 8497 columns, 28827 nonzeros
Presolved model has 1200 quadratic constraint(s)
Variable types: 7297 continuous, 1200 integer (1200 binary)

Root relaxation: objective 1.434801e+04, 4077 iterations, 0.09 seconds (0.11 work units)

    Nodes    |    Current Node    |     Objective Bounds      |     Work
 Expl Unexpl |  Obj  Depth IntInf | Incumbent    BestBd   Gap | It/Node Time

     0     0 14348.0070    0    -          - 14348.0070      -     -    0s
     0     0 158231.404    0  464          - 158231.404      -     -    0s
     0     0 313020.571    0  300          - 313020.571      -     -    0s
     0     0 313030.476    0  150          - 313030.476      -     -    0s
     0     0 313149.311    0  104          - 313149.311      -     -    0s
     0     0 313149.760    0  104          - 313149.760      -     -    0s
     0     0 313149.760    0  104          - 313149.760      -     -    1s
     0     0 313149.930    0  104          - 313149.930      -     -    1s
     0     2 313149.987    0  104          - 313149.987      -     -    1s
H  151   209                    313187.67747 313156.425  0.01%  18.6    2s
*  151   209              62    313187.67747 313156.425  0.01%  18.6    2s

Cutting planes:
  Gomory: 92
  Implied bound: 184
  MIR: 104
  Flow cover: 376
  RLT: 100

Explored 226 nodes (13853 simplex iterations) in 3.27 seconds (2.95 work units)
Thread count was 4 (of 128 available processors)

Solution count 2: 313188 313188 

Optimal solution found (tolerance 1.00e-03)
Warning: max constraint violation (1.8033e-07) exceeds tolerance
Best objective 3.131876774715e+05, best bound 3.131564254559e+05, gap 0.0100%

Gurobi 11.0.3 (linux64) logging started Mon Aug 25 15:07:11 2025

Set parameter LogFile to value "/home/yihong/Coding/OR_SUC/SUC_epstheta_results_bigM100000_thread4/case24_ieee_rts_theta0.1_epsilon0.1_gurobi_seed70000_num_gen100_N_WDR50_load_scaling_factor1_proposed_eps_T12quadra_cost_bc1.01.txt"
Set parameter TimeLimit to value 3600
Gurobi Optimizer version 11.0.3 build v11.0.3rc0 (linux64 - "Ubuntu 20.04.6 LTS")

CPU model: AMD EPYC 7532 32-Core Processor, instruction set [SSE2|AVX|AVX2]
Thread count: 64 physical cores, 128 logical processors, using up to 4 threads

Academic license 2399124 - for non-commercial use only - registered to yi___@ed.ac.uk
Optimize a model with 28480 rows, 14932 columns and 660619 nonzeros
Model fingerprint: 0x04644f98
Model has 1201 quadratic constraints
Variable types: 13732 continuous, 1200 integer (1200 binary)
Coefficient statistics:
  Matrix range     [3e-04, 2e+03]
  QMatrix range    [2e-03, 5e+01]
  QLMatrix range   [5e-01, 6e+01]
  Objective range  [1e+00, 1e+00]
  Bounds range     [1e-01, 1e+00]
  RHS range        [1e+00, 3e+05]
  QRHS range       [5e+00, 5e+00]
Presolve removed 21174 rows and 5329 columns
Presolve time: 0.22s
Presolved: 8508 rows, 10803 columns, 43888 nonzeros
Presolved model has 1200 quadratic constraint(s)
Presolved model has 1 bilinear constraint(s)

Solving non-convex MIQCP

Variable types: 9601 continuous, 1202 integer (1202 binary)

Root relaxation: objective 1.486331e-03, 11691 iterations, 0.66 seconds (0.91 work units)

    Nodes    |    Current Node    |     Objective Bounds      |     Work
 Expl Unexpl |  Obj  Depth IntInf | Incumbent    BestBd   Gap | It/Node Time

     0     0    0.00149    0   16          -    0.00149      -     -    1s
     0     0    0.00149    0    9          -    0.00149      -     -    1s
     0     0    0.00207    0    9          -    0.00207      -     -    1s
H    0     0                       0.0443623    0.00207  95.3%     -    2s
     0     0    0.02305    0   10    0.04436    0.02305  48.0%     -    2s
     0     0    0.02310    0   10    0.04436    0.02310  47.9%     -    2s
     0     0    0.02315    0   17    0.04436    0.02315  47.8%     -    2s
     0     0    0.02319    0   17    0.04436    0.02319  47.7%     -    2s
     0     0    0.02319    0   17    0.04436    0.02319  47.7%     -    3s
     0     0    0.02319    0   17    0.04436    0.02319  47.7%     -    3s
     0     0    0.02319    0   17    0.04436    0.02319  47.7%     -    3s
     0     0    0.02319    0   17    0.04436    0.02319  47.7%     -    3s
     0     0    0.02319    0   17    0.04436    0.02319  47.7%     -    3s
     0     0    0.02319    0   17    0.04436    0.02319  47.7%     -    3s
     0     0    0.02339    0   17    0.04436    0.02339  47.3%     -    3s
     0     2    0.02339    0   17    0.04436    0.02339  47.3%     -    4s
H   27    32                       0.0440450    0.02340  46.9%  33.8    5s
H  313   297                       0.0333969    0.02340  29.9%  12.8   10s
*  313   297              76       0.0333969    0.02340  29.9%  12.8   10s
H  333   300                       0.0333764    0.02340  29.9%  12.7   10s
H  342   299                       0.0320061    0.02340  26.9%  12.9   10s
*  342   299              82       0.0320061    0.02340  26.9%  12.9   10s
H  409   304                       0.0319879    0.02340  26.9%  11.7   11s
*  409   304              95       0.0319879    0.02340  26.9%  11.7   11s
   571   436    0.03082   37   16    0.03199    0.02340  26.9%  13.0   15s
   577   440    0.03117   33   53    0.03199    0.02996  6.34%  12.9   20s
   586   446    0.02998   52   56    0.03199    0.02998  6.29%  12.7   25s
   601   457    0.03002   17   58    0.03199    0.03002  6.16%  38.5   30s
   612   465    0.03002   48   57    0.03199    0.03002  6.14%  37.8   35s
H  612   441                       0.0318977    0.03002  5.88%  37.8   35s
   623   448    0.03007    4   63    0.03190    0.03007  5.73%  37.1   41s
H  623   425                       0.0306914    0.03007  2.02%  37.1   44s
   627   429    0.03007   36   21    0.03069    0.03007  2.02%  61.1   45s
   647   443    0.03015   56   42    0.03069    0.03015  1.75%  59.2   50s
H  651   422                       0.0305298    0.03016  1.22%  58.9   53s
H  651   400                       0.0303875    0.03016  0.76%  58.9   55s
H  678   398                       0.0303861    0.03024  0.48%  74.2   59s
   687   404    0.03039    9   23    0.03039    0.03025  0.43%  73.2   60s
H  692   386                       0.0303621    0.03026  0.34%  72.7   60s
H  701   372                       0.0303410    0.03026  0.26%  71.7   63s
   702   373    0.03026   70   24    0.03034    0.03026  0.26%  71.6   65s
H  706   358                       0.0303397    0.03028  0.19%  84.7   67s
H  706   340                       0.0303395    0.03033  0.02%  84.7   67s

Cutting planes:
  Gomory: 3
  Cover: 1
  Implied bound: 9
  MIR: 2
  Flow cover: 3
  RLT: 7
  Relax-and-lift: 2

Explored 706 nodes (80275 simplex iterations) in 67.65 seconds (51.39 work units)
Thread count was 4 (of 128 available processors)

Solution count 10: 0.0303395 0.0303397 0.030341 ... 0.0319879

Optimal solution found (tolerance 1.00e-03)
Best objective 3.033945451678e-02, best bound 3.033427267944e-02, gap 0.0171%
